minizinc/sudoku_problems2/sudoku_p74.dzn
%
% sudoku_p74.dzn
% See http://www.hakank.org/minizinc/sudoku_gcc.mzn
% 
% This problem is problem 74 from
% Gecode's sudoku.cpp
% http://www.gecode.org/gecode-doc-latest/sudoku_8cpp-source.html
% 
x = array2d(1..n, 1..n, [   
% http://janko.at/Raetsel/Sudoku/586.a.htm
% 74
  8, 13,  _,  _,  _,  6, 14,  _,  _,  _, 10,  2,  _,  _,  _,  _,
 14,  9,  _,  6,  _,  _,  _,  _,  4,  _,  _, 13,  _,  5,  3,  7,
  _,  _,  5,  3,  9, 12,  _,  2,  _,  _,  7,  _, 10,  4,  _,  _,
  _,  _, 11,  2, 16,  _,  _,  5,  _,  _,  _,  _,  _,  _,  6, 13,
  _, 15,  _,  _,  _,  _, 16,  9, 12, 11,  8,  4,  _,  _,  _,  _,
  2,  1,  _, 13,  _, 15,  5,  _,  _,  7,  _, 14, 11,  _, 16,  6,
  9,  8,  3,  _,  _,  4,  7,  _,  6,  5,  _,  _,  _, 10,  _,  2,
  _,  7,  _, 12,  6,  _,  _,  _,  _, 10,  _,  _,  3,  9,  5,  4,
 12,  6,  9,  8,  _,  _,  1,  _,  _,  _,  _,  5,  4,  _,  7,  _,
 15,  _, 10,  _,  _,  _,  4,  6,  _,  8,  2,  _,  _, 13,  9, 16,
  4,  2,  _,  5, 11,  _, 12,  _,  _,  3, 16,  _,  6,  _,  8, 15,
  _,  _,  _,  _,  5, 14,  2,  8, 15,  9,  _,  _,  _,  _, 10,  _,
  7, 11,  _,  _,  _,  _,  _,  _, 16,  _,  _,  1, 12,  3,  _,  _,
  _,  _, 15,  4,  _,  5,  _,  _, 11,  _,  3, 10, 16,  6,  _,  _,
  3,  5, 14,  _, 12,  _,  _, 10,  _,  _,  _,  _,  7,  _,  4,  9,
  _,  _,  _,  _, 13,  1,  _,  _,  _, 15, 12,  _,  _,  _,  2,  5
]);

n = 16;


